sat
(model
  (define-fun |mult$unknown:3|
    ( (v_0 Int) (v_1 Int) (v_2 Int) ) Bool
    (and (or (>= (+ (* (- 1) v_2) v_0) 0) (not (= (+ v_2 (* (- 1) v_1)) 0))) (or (>= (+ (* (- 1) v_1) v_0) 0) (and (>= (* (- 1) v_2) 0) (>= (+ v_1 (* (- 1) v_0)) 1))))
  )
)
